<instance format="XCSP3" type="COP">
  <variables>
    <array id="X" size="[3]"> 1..3 </array>
  </variables>
  <constraints>
    <allDifferent> X[] </allDifferent>
  </constraints>
  <objectives>
    <maximize> X[0] </maximize>
  </objectives>
</instance>
